TimeLimit = 120;

NT = 75;

DTm = {<1 1 23>
<1 2 24>
<1 3 25>
<1 4 26>
<1 5 23>
<1 6 22>
<1 7 6>
<1 8 22>
<1 9 23>
<1 10 21>
<1 11 22>
<1 12 15>
<1 13 5>
<1 14 23>
<1 15 4>
<1 16 26>
<1 17 21>
<1 18 5>
<1 19 24>
<1 20 25>
<1 21 26>
<1 22 26>
<1 23 24>
<1 24 27>
<1 25 20>
<1 26 23>
<1 27 25>
<1 28 13>
<1 29 3>
<1 30 11>
<1 31 21>
<1 32 22>
<1 33 21>
<1 34 22>
<1 35 25>
<1 36 8>
<1 37 22>
<1 38 24>
<1 39 22>
<1 40 21>
<1 41 6>
<1 42 26>
<1 43 22>
<1 44 6>
<1 45 21>
<1 46 25>
<1 47 11>
<1 48 22>
<1 49 21>
<1 50 25>
<1 51 22>
<1 52 22>
<1 53 23>
<1 54 22>
<1 55 22>
<1 56 25>
<1 57 23>
<1 58 21>
<1 59 22>
<1 60 22>
<1 61 22>
<1 62 22>
<1 63 21>
<1 64 27>
<1 65 23>
<1 66 2>
<1 67 26>
<1 68 25>
<1 69 24>
<1 70 22>
<1 71 24>
<1 72 4>
<1 73 22>
<1 74 10>
<1 75 25>
};

PREC = {<1, 2>
<1, 3>
<1, 4>
<1, 5>
<1, 6>
<1, 7>
<2, 15>
<3, 13>
<3, 24>
<4, 8>
<4, 14>
<4, 16>
<5, 12>
<5, 15>
<6, 9>
<6, 10>
<6, 11>
<6, 13>
<9, 20>
<9, 24>
<10, 18>
<12, 19>
<13, 22>
<15, 17>
<15, 20>
<15, 23>
<16, 21>
<16, 26>
<17, 30>
<18, 26>
<18, 30>
<20, 27>
<21, 33>
<24, 25>
<25, 28>
<25, 30>
<25, 33>
<25, 34>
<26, 31>
<26, 32>
<26, 41>
<27, 29>
<27, 35>
<27, 36>
<31, 37>
<31, 39>
<32, 44>
<32, 45>
<33, 41>
<35, 38>
<35, 42>
<36, 40>
<36, 43>
<39, 51>
<40, 46>
<42, 47>
<43, 48>
<43, 50>
<46, 51>
<46, 48>
<47, 49>
<47, 50>
<47, 52>
<47, 53>
<49, 59>
<49, 61>
<49, 62>
<50, 54>
<50, 55>
<50, 60>
<50, 62>
<52, 56>
<52, 57>
<53, 58>
<55, 63>
<58, 65>
<59, 64>
<59, 66>
<62, 67>
<66, 68>
<68, 69>
<68, 70>
<68, 71>
<68, 72>
<68, 73>
<68, 74>
<68, 75>
};



NW = 30;
NS = 30;
NM = 1;
OR = [1.0];
precision = 0.0175438596491228;
WSFIXe = {
<1 1>
<2 2>
<3 3>
<4 4>
<5 5>
<6 6>
<7 7>
<8 8>
<9 9>
<10 10>
<11 11>
<12 12>
<13 13>
<14 14>
<15 15>
<16 16>
<17 17>
<18 18>
<19 19>
<20 20>
<21 21>
<22 22>
<23 23>
<24 24>
<25 25>
<26 26>
<27 27>
<28 28>
<29 29>
<30 30>
};
WSFEASe = { };
TSFIXe = { };
FATSe = { };
MT = { };
TTIne = { };
TWIne = { };
